param TOT_LAYERS := 4;  # Total Number of layers in the ANN
param N_NODES := 4 6 6 2;  # Number of nodes for each layer
param ANN_WEIGTHS :=
                     1   6 -4 8 0 10 -9 4 -4 8 -9 -1 1 5 0 9 5 -6 8 -2 -1 5 -8 8 10
                     2   -5 -7 5 -9 6 10 -9 10 -10 3 6 0 8 -5 -4 -9 6 10 3 -1 9 0 3 -1 2 10 -9 8 -5 6 4 -3 10 7 -6 -1
                     3   -10 1 -7 -9 -10 8 2 -3 0 -9 5 2 ;
end;
